55
1 0 42
2 0 15
2 1 26
3 0 37
3 1 31
3 2 47
4 0 6
4 1 6
4 2 4
4 3 5
5 0 16
5 1 5
5 2 14
5 3 21
5 4 24
6 0 45
6 1 39
6 2 20
6 3 3
6 4 40
6 5 35
7 0 48
7 1 36
7 2 14
7 3 47
7 4 19
7 5 7
7 6 8
8 0 1
8 1 28
8 2 28
8 3 17
8 4 40
8 5 46
8 6 48
8 7 4
9 0 20
9 1 38
9 2 34
9 3 10
9 4 19
9 5 22
9 6 23
9 7 13
9 8 35
10 0 50
10 1 31
10 2 50
10 3 33
10 4 8
10 5 40
10 6 22
10 7 42
10 8 23
10 9 3
11 0 6
11 1 46
11 2 15
11 3 44
11 4 8
11 5 31
11 6 6
11 7 1
11 8 7
11 9 29
11 10 33
12 0 3
12 1 34
12 2 18
12 3 26
12 4 34
12 5 7
12 6 16
12 7 7
12 8 25
12 9 18
12 10 46
12 11 39
13 0 8
13 1 46
13 2 32
13 3 35
13 4 50
13 5 3
13 6 30
13 7 1
13 8 34
13 9 15
13 10 32
13 11 13
13 12 13
14 0 11
14 1 19
14 2 17
14 3 42
14 4 18
14 5 22
14 6 48
14 7 34
14 8 42
14 9 1
14 10 8
14 11 18
14 12 2
14 13 26
15 0 25
15 1 32
15 2 6
15 3 29
15 4 41
15 5 35
15 6 18
15 7 50
15 8 31
15 9 11
15 10 6
15 11 32
15 12 1
15 13 18
15 14 1
16 0 33
16 1 43
16 2 28
16 3 49
16 4 7
16 5 10
16 6 47
16 7 47
16 8 46
16 9 22
16 10 22
16 11 5
16 12 45
16 13 35
16 14 48
16 15 44
17 0 31
17 1 14
17 2 32
17 3 3
17 4 22
17 5 9
17 6 19
17 7 48
17 8 35
17 9 15
17 10 28
17 11 18
17 12 47
17 13 26
17 14 39
17 15 27
17 16 40
18 0 39
18 1 26
18 2 46
18 3 15
18 4 5
18 5 28
18 6 40
18 7 26
18 8 49
18 9 17
18 10 25
18 11 5
18 12 29
18 13 25
18 14 33
18 15 40
18 16 41
18 17 31
19 0 35
19 1 7
19 2 2
19 3 20
19 4 26
19 5 49
19 6 50
19 7 16
19 8 2
19 9 25
19 10 28
19 11 8
19 12 12
19 13 42
19 14 44
19 15 1
19 16 29
19 17 16
19 18 12
20 0 43
20 1 4
20 2 18
20 3 48
20 4 21
20 5 28
20 6 6
20 7 35
20 8 17
20 9 33
20 10 28
20 11 13
20 12 32
20 13 31
20 14 35
20 15 41
20 16 42
20 17 1
20 18 48
20 19 50
21 0 35
21 1 3
21 2 45
21 3 10
21 4 47
21 5 40
21 6 5
21 7 16
21 8 35
21 9 33
21 10 26
21 11 32
21 12 31
21 13 11
21 14 38
21 15 21
21 16 21
21 17 29
21 18 16
21 19 30
21 20 45
22 0 25
22 1 14
22 2 32
22 3 19
22 4 35
22 5 18
22 6 23
22 7 9
22 8 47
22 9 18
22 10 41
22 11 20
22 12 6
22 13 2
22 14 36
22 15 20
22 16 16
22 17 9
22 18 39
22 19 36
22 20 13
22 21 32
23 0 17
23 1 49
23 2 9
23 3 1
23 4 7
23 5 23
23 6 38
23 7 39
23 8 31
23 9 12
23 10 18
23 11 46
23 12 2
23 13 41
23 14 12
23 15 4
23 16 19
23 17 49
23 18 12
23 19 8
23 20 16
23 21 17
23 22 47
24 0 37
24 1 42
24 2 18
24 3 27
24 4 31
24 5 30
24 6 13
24 7 46
24 8 28
24 9 27
24 10 45
24 11 28
24 12 47
24 13 42
24 14 33
24 15 14
24 16 40
24 17 3
24 18 41
24 19 2
24 20 35
24 21 41
24 22 40
24 23 7
25 0 13
25 1 43
25 2 31
25 3 35
25 4 11
25 5 44
25 6 14
25 7 15
25 8 22
25 9 39
25 10 41
25 11 48
25 12 22
25 13 45
25 14 14
25 15 44
25 16 46
25 17 39
25 18 50
25 19 37
25 20 30
25 21 19
25 22 40
25 23 30
25 24 30
26 0 18
26 1 5
26 2 14
26 3 35
26 4 34
26 5 40
26 6 49
26 7 21
26 8 49
26 9 42
26 10 44
26 11 46
26 12 29
26 13 22
26 14 14
26 15 43
26 16 20
26 17 28
26 18 1
26 19 47
26 20 39
26 21 8
26 22 9
26 23 37
26 24 4
26 25 6
27 0 6
27 1 45
27 2 40
27 3 50
27 4 25
27 5 50
27 6 10
27 7 7
27 8 37
27 9 27
27 10 45
27 11 27
27 12 16
27 13 42
27 14 48
27 15 24
27 16 23
27 17 46
27 18 15
27 19 12
27 20 20
27 21 30
27 22 26
27 23 45
27 24 10
27 25 13
27 26 22
28 0 19
28 1 43
28 2 8
28 3 4
28 4 50
28 5 8
28 6 16
28 7 30
28 8 18
28 9 11
28 10 4
28 11 35
28 12 20
28 13 14
28 14 3
28 15 20
28 16 31
28 17 35
28 18 8
28 19 10
28 20 6
28 21 15
28 22 34
28 23 45
28 24 44
28 25 37
28 26 42
28 27 44
29 0 15
29 1 12
29 2 4
29 3 20
29 4 5
29 5 4
29 6 4
29 7 12
29 8 48
29 9 31
29 10 27
29 11 42
29 12 31
29 13 38
29 14 40
29 15 28
29 16 13
29 17 3
29 18 47
29 19 2
29 20 10
29 21 45
29 22 5
29 23 24
29 24 36
29 25 29
29 26 11
29 27 21
29 28 3
30 0 8
30 1 1
30 2 20
30 3 50
30 4 12
30 5 12
30 6 28
30 7 43
30 8 11
30 9 35
30 10 48
30 11 25
30 12 34
30 13 2
30 14 14
30 15 41
30 16 45
30 17 34
30 18 12
30 19 36
30 20 35
30 21 19
30 22 31
30 23 32
30 24 2
30 25 8
30 26 6
30 27 13
30 28 50
30 29 35
31 0 8
31 1 28
31 2 21
31 3 19
31 4 18
31 5 34
31 6 46
31 7 24
31 8 22
31 9 13
31 10 10
31 11 19
31 12 37
31 13 1
31 14 5
31 15 44
31 16 29
31 17 47
31 18 18
31 19 23
31 20 3
31 21 4
31 22 23
31 23 37
31 24 6
31 25 9
31 26 39
31 27 6
31 28 5
31 29 22
31 30 48
32 0 7
32 1 45
32 2 49
32 3 16
32 4 40
32 5 22
32 6 9
32 7 31
32 8 48
32 9 13
32 10 30
32 11 24
32 12 6
32 13 18
32 14 22
32 15 20
32 16 9
32 17 21
32 18 29
32 19 3
32 20 37
32 21 21
32 22 30
32 23 18
32 24 12
32 25 42
32 26 29
32 27 23
32 28 42
32 29 13
32 30 15
32 31 31
33 0 3
33 1 50
33 2 17
33 3 44
33 4 15
33 5 1
33 6 3
33 7 28
33 8 3
33 9 11
33 10 26
33 11 14
33 12 13
33 13 50
33 14 42
33 15 50
33 16 48
33 17 34
33 18 30
33 19 10
33 20 32
33 21 46
33 22 6
33 23 20
33 24 27
33 25 29
33 26 39
33 27 11
33 28 45
33 29 21
33 30 46
33 31 8
33 32 3
34 0 32
34 1 38
34 2 25
34 3 38
34 4 11
34 5 17
34 6 1
34 7 46
34 8 25
34 9 32
34 10 37
34 11 10
34 12 21
34 13 8
34 14 17
34 15 34
34 16 27
34 17 39
34 18 20
34 19 23
34 20 26
34 21 35
34 22 30
34 23 22
34 24 38
34 25 26
34 26 12
34 27 8
34 28 29
34 29 50
34 30 44
34 31 32
34 32 44
34 33 4
35 0 5
35 1 28
35 2 7
35 3 6
35 4 21
35 5 10
35 6 26
35 7 15
35 8 4
35 9 1
35 10 7
35 11 41
35 12 6
35 13 48
35 14 38
35 15 24
35 16 46
35 17 17
35 18 36
35 19 19
35 20 16
35 21 27
35 22 30
35 23 5
35 24 40
35 25 26
35 26 3
35 27 29
35 28 19
35 29 34
35 30 44
35 31 29
35 32 13
35 33 14
35 34 48
36 0 11
36 1 24
36 2 30
36 3 5
36 4 6
36 5 34
36 6 4
36 7 27
36 8 21
36 9 18
36 10 7
36 11 35
36 12 15
36 13 37
36 14 47
36 15 34
36 16 35
36 17 12
36 18 47
36 19 12
36 20 45
36 21 24
36 22 26
36 23 30
36 24 36
36 25 33
36 26 11
36 27 50
36 28 30
36 29 23
36 30 14
36 31 5
36 32 42
36 33 22
36 34 34
36 35 26
37 0 34
37 1 20
37 2 39
37 3 2
37 4 17
37 5 31
37 6 3
37 7 27
37 8 35
37 9 40
37 10 1
37 11 20
37 12 22
37 13 34
37 14 38
37 15 48
37 16 7
37 17 18
37 18 2
37 19 29
37 20 4
37 21 19
37 22 1
37 23 3
37 24 9
37 25 7
37 26 21
37 27 21
37 28 13
37 29 9
37 30 20
37 31 40
37 32 12
37 33 26
37 34 6
37 35 14
37 36 22
38 0 9
38 1 33
38 2 23
38 3 35
38 4 5
38 5 9
38 6 43
38 7 15
38 8 31
38 9 46
38 10 13
38 11 24
38 12 3
38 13 46
38 14 9
38 15 30
38 16 47
38 17 16
38 18 18
38 19 36
38 20 43
38 21 35
38 22 18
38 23 23
38 24 18
38 25 40
38 26 38
38 27 15
38 28 6
38 29 20
38 30 13
38 31 33
38 32 5
38 33 30
38 34 37
38 35 28
38 36 42
38 37 24
39 0 10
39 1 21
39 2 46
39 3 40
39 4 6
39 5 37
39 6 3
39 7 29
39 8 26
39 9 8
39 10 32
39 11 20
39 12 48
39 13 35
39 14 27
39 15 44
39 16 1
39 17 38
39 18 31
39 19 34
39 20 12
39 21 18
39 22 2
39 23 45
39 24 23
39 25 39
39 26 22
39 27 49
39 28 47
39 29 18
39 30 34
39 31 3
39 32 43
39 33 12
39 34 26
39 35 40
39 36 50
39 37 23
39 38 35
40 0 39
40 1 38
40 2 16
40 3 42
40 4 17
40 5 36
40 6 12
40 7 27
40 8 10
40 9 22
40 10 26
40 11 34
40 12 12
40 13 11
40 14 23
40 15 10
40 16 25
40 17 4
40 18 49
40 19 22
40 20 46
40 21 5
40 22 34
40 23 36
40 24 45
40 25 36
40 26 49
40 27 25
40 28 2
40 29 8
40 30 31
40 31 21
40 32 10
40 33 18
40 34 40
40 35 8
40 36 26
40 37 30
40 38 41
40 39 43
41 0 49
41 1 34
41 2 40
41 3 27
41 4 37
41 5 49
41 6 46
41 7 30
41 8 16
41 9 6
41 10 25
41 11 30
41 12 17
41 13 39
41 14 15
41 15 43
41 16 18
41 17 17
41 18 18
41 19 15
41 20 5
41 21 36
41 22 15
41 23 45
41 24 5
41 25 8
41 26 16
41 27 29
41 28 24
41 29 33
41 30 46
41 31 13
41 32 15
41 33 1
41 34 45
41 35 30
41 36 9
41 37 14
41 38 50
41 39 31
41 40 23
42 0 26
42 1 19
42 2 46
42 3 24
42 4 19
42 5 41
42 6 40
42 7 44
42 8 47
42 9 15
42 10 43
42 11 28
42 12 43
42 13 16
42 14 11
42 15 1
42 16 29
42 17 6
42 18 31
42 19 18
42 20 15
42 21 34
42 22 21
42 23 34
42 24 50
42 25 11
42 26 44
42 27 44
42 28 24
42 29 25
42 30 4
42 31 27
42 32 23
42 33 2
42 34 1
42 35 32
42 36 7
42 37 16
42 38 13
42 39 35
42 40 39
42 41 25
43 0 38
43 1 33
43 2 46
43 3 44
43 4 50
43 5 19
43 6 36
43 7 34
43 8 25
43 9 39
43 10 23
43 11 26
43 12 6
43 13 33
43 14 39
43 15 37
43 16 5
43 17 12
43 18 36
43 19 21
43 20 22
43 21 22
43 22 15
43 23 46
43 24 13
43 25 40
43 26 20
43 27 2
43 28 5
43 29 20
43 30 6
43 31 7
43 32 21
43 33 3
43 34 30
43 35 13
43 36 29
43 37 9
43 38 30
43 39 20
43 40 16
43 41 13
43 42 33
44 0 45
44 1 21
44 2 29
44 3 6
44 4 36
44 5 44
44 6 14
44 7 3
44 8 36
44 9 47
44 10 48
44 11 47
44 12 12
44 13 47
44 14 15
44 15 36
44 16 49
44 17 29
44 18 32
44 19 25
44 20 28
44 21 10
44 22 21
44 23 9
44 24 22
44 25 6
44 26 31
44 27 11
44 28 8
44 29 6
44 30 5
44 31 13
44 32 40
44 33 37
44 34 4
44 35 30
44 36 22
44 37 44
44 38 23
44 39 35
44 40 41
44 41 39
44 42 19
44 43 42
45 0 27
45 1 22
45 2 24
45 3 50
45 4 30
45 5 19
45 6 40
45 7 44
45 8 40
45 9 31
45 10 3
45 11 24
45 12 36
45 13 44
45 14 40
45 15 40
45 16 4
45 17 8
45 18 42
45 19 28
45 20 29
45 21 4
45 22 46
45 23 39
45 24 37
45 25 50
45 26 7
45 27 1
45 28 18
45 29 11
45 30 12
45 31 11
45 32 21
45 33 21
45 34 16
45 35 36
45 36 24
45 37 41
45 38 31
45 39 35
45 40 22
45 41 22
45 42 30
45 43 13
45 44 25
46 0 11
46 1 17
46 2 45
46 3 8
46 4 50
46 5 6
46 6 48
46 7 23
46 8 7
46 9 24
46 10 18
46 11 38
46 12 22
46 13 19
46 14 41
46 15 43
46 16 41
46 17 46
46 18 14
46 19 6
46 20 46
46 21 8
46 22 2
46 23 49
46 24 1
46 25 43
46 26 10
46 27 5
46 28 45
46 29 34
46 30 10
46 31 41
46 32 43
46 33 2
46 34 29
46 35 42
46 36 33
46 37 5
46 38 6
46 39 15
46 40 26
46 41 29
46 42 15
46 43 27
46 44 47
46 45 27
47 0 24
47 1 16
47 2 25
47 3 16
47 4 11
47 5 13
47 6 24
47 7 15
47 8 46
47 9 43
47 10 3
47 11 47
47 12 19
47 13 8
47 14 40
47 15 27
47 16 6
47 17 2
47 18 1
47 19 27
47 20 25
47 21 38
47 22 43
47 23 17
47 24 9
47 25 10
47 26 39
47 27 47
47 28 3
47 29 35
47 30 48
47 31 47
47 32 3
47 33 44
47 34 40
47 35 25
47 36 26
47 37 21
47 38 22
47 39 32
47 40 19
47 41 47
47 42 6
47 43 34
47 44 18
47 45 21
47 46 34
48 0 39
48 1 6
48 2 27
48 3 28
48 4 2
48 5 11
48 6 21
48 7 1
48 8 16
48 9 40
48 10 7
48 11 37
48 12 3
48 13 31
48 14 7
48 15 35
48 16 27
48 17 26
48 18 27
48 19 46
48 20 19
48 21 50
48 22 43
48 23 46
48 24 19
48 25 29
48 26 41
48 27 32
48 28 41
48 29 20
48 30 36
48 31 3
48 32 43
48 33 40
48 34 16
48 35 6
48 36 40
48 37 10
48 38 37
48 39 28
48 40 6
48 41 19
48 42 35
48 43 27
48 44 34
48 45 40
48 46 30
48 47 20
49 0 28
49 1 41
49 2 37
49 3 50
49 4 17
49 5 5
49 6 8
49 7 8
49 8 35
49 9 49
49 10 21
49 11 24
49 12 40
49 13 2
49 14 33
49 15 20
49 16 46
49 17 14
49 18 36
49 19 15
49 20 49
49 21 3
49 22 41
49 23 49
49 24 6
49 25 14
49 26 33
49 27 38
49 28 27
49 29 13
49 30 20
49 31 22
49 32 9
49 33 6
49 34 6
49 35 9
49 36 46
49 37 45
49 38 40
49 39 25
49 40 16
49 41 26
49 42 39
49 43 3
49 44 17
49 45 21
49 46 10
49 47 26
49 48 17
50 0 26
50 1 50
50 2 43
50 3 8
50 4 32
50 5 26
50 6 2
50 7 30
50 8 40
50 9 32
50 10 36
50 11 1
50 12 38
50 13 3
50 14 24
50 15 7
50 16 45
50 17 50
50 18 39
50 19 21
50 20 18
50 21 48
50 22 31
50 23 12
50 24 38
50 25 31
50 26 27
50 27 7
50 28 11
50 29 16
50 30 24
50 31 19
50 32 17
50 33 3
50 34 38
50 35 3
50 36 15
50 37 9
50 38 47
50 39 22
50 40 27
50 41 43
50 42 25
50 43 39
50 44 15
50 45 47
50 46 32
50 47 21
50 48 7
50 49 12
51 0 26
51 1 31
51 2 22
51 3 1
51 4 38
51 5 20
51 6 3
51 7 49
51 8 49
51 9 25
51 10 50
51 11 36
51 12 49
51 13 46
51 14 33
51 15 3
51 16 22
51 17 10
51 18 47
51 19 10
51 20 21
51 21 39
51 22 21
51 23 34
51 24 7
51 25 23
51 26 11
51 27 48
51 28 32
51 29 47
51 30 24
51 31 38
51 32 29
51 33 21
51 34 14
51 35 18
51 36 36
51 37 13
51 38 35
51 39 47
51 40 23
51 41 49
51 42 11
51 43 20
51 44 17
51 45 4
51 46 32
51 47 5
51 48 45
51 49 24
51 50 11
52 0 38
52 1 47
52 2 29
52 3 44
52 4 14
52 5 40
52 6 12
52 7 22
52 8 10
52 9 50
52 10 8
52 11 17
52 12 12
52 13 40
52 14 24
52 15 18
52 16 45
52 17 9
52 18 27
52 19 3
52 20 14
52 21 15
52 22 7
52 23 26
52 24 21
52 25 37
52 26 42
52 27 39
52 28 43
52 29 43
52 30 49
52 31 34
52 32 25
52 33 44
52 34 22
52 35 1
52 36 20
52 37 47
52 38 30
52 39 28
52 40 27
52 41 5
52 42 38
52 43 8
52 44 37
52 45 43
52 46 43
52 47 30
52 48 42
52 49 36
52 50 39
52 51 40
53 0 3
53 1 5
53 2 2
53 3 36
53 4 22
53 5 19
53 6 36
53 7 7
53 8 14
53 9 49
53 10 22
53 11 49
53 12 4
53 13 31
53 14 6
53 15 40
53 16 45
53 17 22
53 18 48
53 19 50
53 20 20
53 21 23
53 22 14
53 23 21
53 24 24
53 25 19
53 26 37
53 27 31
53 28 12
53 29 4
53 30 8
53 31 47
53 32 17
53 33 1
53 34 1
53 35 9
53 36 25
53 37 30
53 38 23
53 39 26
53 40 7
53 41 45
53 42 5
53 43 46
53 44 46
53 45 38
53 46 12
53 47 7
53 48 22
53 49 38
53 50 12
53 51 11
53 52 14
54 0 39
54 1 40
54 2 47
54 3 15
54 4 7
54 5 50
54 6 39
54 7 37
54 8 13
54 9 47
54 10 4
54 11 42
54 12 46
54 13 18
54 14 37
54 15 28
54 16 2
54 17 31
54 18 26
54 19 42
54 20 28
54 21 9
54 22 37
54 23 39
54 24 12
54 25 49
54 26 7
54 27 9
54 28 7
54 29 32
54 30 41
54 31 27
54 32 11
54 33 29
54 34 48
54 35 24
54 36 9
54 37 46
54 38 21
54 39 11
54 40 34
54 41 16
54 42 29
54 43 28
54 44 22
54 45 41
54 46 2
54 47 11
54 48 42
54 49 17
54 50 37
54 51 47
54 52 10
54 53 34
